22065.0
1 0 1 0 1 0 1 1 1 0 1 1 1 1 0 0 0 0 1 1 1 1 0 1 1 1 1 1 1 0 
18 19 21 27 2 12 21 27 18 28 4 28 13 13 28 18 13 20 27 0 18 21 23 24 10 18 27 19 4 2 19 19 4 21 27 6 20 8 24 21 18 8 6 4 8 19 13 21 19 20 24 24 24 21 8 6 11 8 18 7 4 0 7 8 13 11 23 19 28 25 18 12 19 8 23 23 20 23 8 24 10 0 26 25 4 13 6 2 27 7 28 6 25 25 2 13 11 6 0 28 28 21 25 18 4 0 4 24 27 13 19 4 27 12 12 8 28 7 0 8 26 11 28 19 26 21 2 11 26 0 28 24 25 20 23 8 13 13 28 10 12 27 11 11 25 2 24 21 27 25 24 0 23 0 8 11 2 21 13 13 13 27 10 24 23 27 23 4 13 21 23 20 19 10 26 2 0 10 4 10 2 21 2 19 12 8 28 23 0 21 2 21 6 4 7 12 7 21 10 19 